unsat
(:conflicts            1
 :max-generation       1
 :max-memory           22.57
 :memory               20.90
 :mk-bool-var          218
 :mk-clause            16
 :mk-clause-binary     142
 :num-allocs           3291907
 :num-checks           1
 :quant-instantiations 15
 :rlimit-count         99855
 :time                 0.01)
